c colouring generated by benchmark framework
p edge 450 5734
v 1 7
v 2 6
v 3 1
v 4 3
v 5 0
v 6 0
v 7 6
v 8 6
v 9 3
v 10 0
v 11 8
v 12 5
v 13 5
v 14 4
v 15 7
v 16 6
v 17 7
v 18 4
v 19 3
v 20 0
v 21 0
v 22 9
v 23 4
v 24 4
v 25 6
v 26 6
v 27 6
v 28 1
v 29 9
v 30 9
v 31 6
v 32 8
v 33 1
v 34 4
v 35 4
v 36 0
v 37 9
v 38 1
v 39 7
v 40 2
v 41 7
v 42 7
v 43 5
v 44 3
v 45 5
v 46 0
v 47 7
v 48 9
v 49 6
v 50 9
v 51 2
v 52 7
v 53 7
v 54 3
v 55 9
v 56 0
v 57 7
v 58 8
v 59 7
v 60 7
v 61 2
v 62 1
v 63 5
v 64 6
v 65 3
v 66 7
v 67 7
v 68 1
v 69 3
v 70 7
v 71 7
v 72 5
v 73 7
v 74 7
v 75 2
v 76 5
v 77 4
v 78 8
v 79 6
v 80 7
v 81 9
v 82 1
v 83 8
v 84 3
v 85 0
v 86 0
v 87 8
v 88 8
v 89 4
v 90 6
v 91 0
v 92 8
v 93 1
v 94 3
v 95 0
v 96 3
v 97 9
v 98 9
v 99 9
v 100 2
v 101 2
v 102 1
v 103 1
v 104 4
v 105 4
v 106 3
v 107 3
v 108 6
v 109 9
v 110 0
v 111 7
v 112 8
v 113 1
v 114 9
v 115 2
v 116 0
v 117 6
v 118 5
v 119 9
v 120 0
v 121 6
v 122 0
v 123 7
v 124 4
v 125 8
v 126 6
v 127 1
v 128 1
v 129 3
v 130 2
v 131 2
v 132 6
v 133 5
v 134 9
v 135 1
v 136 0
v 137 9
v 138 5
v 139 8
v 140 2
v 141 5
v 142 8
v 143 8
v 144 4
v 145 4
v 146 0
v 147 4
v 148 8
v 149 4
v 150 9
v 151 3
v 152 8
v 153 7
v 154 3
v 155 6
v 156 7
v 157 8
v 158 0
v 159 3
v 160 5
v 161 3
v 162 7
v 163 9
v 164 1
v 165 2
v 166 9
v 167 8
v 168 9
v 169 6
v 170 2
v 171 6
v 172 7
v 173 2
v 174 1
v 175 8
v 176 5
v 177 7
v 178 0
v 179 4
v 180 0
v 181 0
v 182 6
v 183 9
v 184 4
v 185 2
v 186 0
v 187 8
v 188 5
v 189 9
v 190 4
v 191 3
v 192 1
v 193 1
v 194 4
v 195 6
v 196 4
v 197 1
v 198 3
v 199 9
v 200 6
v 201 6
v 202 4
v 203 4
v 204 4
v 205 6
v 206 3
v 207 9
v 208 1
v 209 4
v 210 9
v 211 5
v 212 5
v 213 1
v 214 4
v 215 5
v 216 9
v 217 4
v 218 1
v 219 4
v 220 9
v 221 3
v 222 1
v 223 9
v 224 3
v 225 8
v 226 3
v 227 7
v 228 1
v 229 8
v 230 0
v 231 2
v 232 4
v 233 8
v 234 4
v 235 0
v 236 8
v 237 7
v 238 4
v 239 7
v 240 0
v 241 2
v 242 2
v 243 6
v 244 6
v 245 0
v 246 4
v 247 1
v 248 4
v 249 7
v 250 2
v 251 3
v 252 7
v 253 9
v 254 1
v 255 9
v 256 7
v 257 4
v 258 8
v 259 7
v 260 2
v 261 7
v 262 6
v 263 5
v 264 1
v 265 2
v 266 0
v 267 7
v 268 8
v 269 4
v 270 2
v 271 0
v 272 8
v 273 5
v 274 5
v 275 2
v 276 0
v 277 2
v 278 7
v 279 6
v 280 2
v 281 9
v 282 6
v 283 1
v 284 1
v 285 8
v 286 5
v 287 3
v 288 1
v 289 3
v 290 7
v 291 0
v 292 7
v 293 1
v 294 4
v 295 0
v 296 4
v 297 6
v 298 4
v 299 5
v 300 8
v 301 6
v 302 1
v 303 2
v 304 4
v 305 4
v 306 0
v 307 4
v 308 3
v 309 9
v 310 2
v 311 9
v 312 8
v 313 2
v 314 2
v 315 0
v 316 0
v 317 2
v 318 3
v 319 8
v 320 4
v 321 5
v 322 8
v 323 8
v 324 7
v 325 2
v 326 0
v 327 3
v 328 0
v 329 2
v 330 5
v 331 4
v 332 8
v 333 9
v 334 0
v 335 2
v 336 3
v 337 8
v 338 1
v 339 3
v 340 2
v 341 3
v 342 5
v 343 6
v 344 1
v 345 6
v 346 8
v 347 7
v 348 4
v 349 7
v 350 8
v 351 8
v 352 6
v 353 1
v 354 6
v 355 2
v 356 0
v 357 1
v 358 8
v 359 3
v 360 3
v 361 0
v 362 9
v 363 1
v 364 4
v 365 2
v 366 5
v 367 8
v 368 0
v 369 9
v 370 2
v 371 0
v 372 4
v 373 8
v 374 1
v 375 2
v 376 5
v 377 5
v 378 1
v 379 3
v 380 1
v 381 7
v 382 7
v 383 4
v 384 3
v 385 5
v 386 0
v 387 7
v 388 3
v 389 9
v 390 9
v 391 0
v 392 5
v 393 9
v 394 9
v 395 1
v 396 9
v 397 6
v 398 2
v 399 3
v 400 2
v 401 5
v 402 7
v 403 5
v 404 5
v 405 0
v 406 0
v 407 5
v 408 7
v 409 1
v 410 2
v 411 5
v 412 3
v 413 8
v 414 6
v 415 4
v 416 0
v 417 8
v 418 1
v 419 6
v 420 7
v 421 5
v 422 8
v 423 5
v 424 3
v 425 3
v 426 6
v 427 8
v 428 4
v 429 2
v 430 0
v 431 3
v 432 5
v 433 9
v 434 7
v 435 2
v 436 5
v 437 5
v 438 8
v 439 7
v 440 5
v 441 9
v 442 1
v 443 8
v 444 2
v 445 2
v 446 0
v 447 8
v 448 6
v 449 2
v 450 2
